NAME          
ROWS
 N  OBJ
 L  c1
COLUMNS
    MARKER    'MARKER'                 'INTORG'
    x[1]      c1        465
    x[1]      OBJ       -476
    x[2]      c1        128
    x[2]      OBJ       -225
    x[3]      c1        -10
    x[3]      OBJ       -75
    x[4]      c1        254
    x[4]      OBJ       -277
    x[5]      c1        81
    x[5]      OBJ       -24
    x[6]      c1        840
    x[6]      OBJ       -929
    x[7]      c1        396
    x[7]      OBJ       -341
    x[8]      c1        77
    x[8]      OBJ       -148
    x[9]      c1        205
    x[9]      OBJ       -157
    x[10]     c1        771
    x[10]     OBJ       -773
    x[11]     c1        621
    x[11]     OBJ       -654
    x[12]     c1        392
    x[12]     OBJ       -399
    x[13]     c1        80
    x[13]     OBJ       -92
    x[14]     c1        663
    x[14]     OBJ       -685
    x[15]     c1        286
    x[15]     OBJ       -265
    x[16]     c1        162
    x[16]     OBJ       -91
    x[17]     c1        130
    x[17]     OBJ       -92
    x[18]     c1        -80
    x[18]     OBJ       -15
    x[19]     c1        522
    x[19]     OBJ       -450
    x[20]     c1        132
    x[20]     OBJ       -54
    x[21]     c1        777
    x[21]     OBJ       -876
    x[22]     c1        649
    x[22]     OBJ       -676
    x[23]     c1        674
    x[23]     OBJ       -615
    x[24]     c1        698
    x[24]     OBJ       -770
    x[25]     c1        1037
    x[25]     OBJ       -971
    x[26]     c1        968
    x[26]     OBJ       -933
    x[27]     c1        797
    x[27]     OBJ       -703
    x[28]     c1        478
    x[28]     OBJ       -443
    x[29]     c1        688
    x[29]     OBJ       -652
    x[30]     c1        155
    x[30]     OBJ       -170
RHS
    rhs       c1        6518
RANGES
BOUNDS
 LO bounds    x[1]      0
 PL bounds    x[1]
 LO bounds    x[2]      0
 PL bounds    x[2]
 LO bounds    x[3]      0
 PL bounds    x[3]
 LO bounds    x[4]      0
 PL bounds    x[4]
 LO bounds    x[5]      0
 PL bounds    x[5]
 LO bounds    x[6]      0
 PL bounds    x[6]
 LO bounds    x[7]      0
 PL bounds    x[7]
 LO bounds    x[8]      0
 PL bounds    x[8]
 LO bounds    x[9]      0
 PL bounds    x[9]
 LO bounds    x[10]     0
 PL bounds    x[10]
 LO bounds    x[11]     0
 PL bounds    x[11]
 LO bounds    x[12]     0
 PL bounds    x[12]
 LO bounds    x[13]     0
 PL bounds    x[13]
 LO bounds    x[14]     0
 PL bounds    x[14]
 LO bounds    x[15]     0
 PL bounds    x[15]
 LO bounds    x[16]     0
 PL bounds    x[16]
 LO bounds    x[17]     0
 PL bounds    x[17]
 LO bounds    x[18]     0
 PL bounds    x[18]
 LO bounds    x[19]     0
 PL bounds    x[19]
 LO bounds    x[20]     0
 PL bounds    x[20]
 LO bounds    x[21]     0
 PL bounds    x[21]
 LO bounds    x[22]     0
 PL bounds    x[22]
 LO bounds    x[23]     0
 PL bounds    x[23]
 LO bounds    x[24]     0
 PL bounds    x[24]
 LO bounds    x[25]     0
 PL bounds    x[25]
 LO bounds    x[26]     0
 PL bounds    x[26]
 LO bounds    x[27]     0
 PL bounds    x[27]
 LO bounds    x[28]     0
 PL bounds    x[28]
 LO bounds    x[29]     0
 PL bounds    x[29]
 LO bounds    x[30]     0
 PL bounds    x[30]
ENDATA
